HUN,8,6,638
5,28,1,15,4,7,2,27,3,22,0,26
1,30,3,28,0,28,5,4,2,2,4,19
5,5,3,29,2,10,1,16,4,20,0,15
2,24,4,7,0,12,1,17,5,22,3,6
0,24,1,24,5,5,3,22,2,10,4,14
4,17,1,17,2,3,5,12,0,29,3,7
5,29,2,19,3,16,4,28,0,24,1,6
5,23,2,2,0,17,4,12,3,27,1,3
